* #variable= 692 #constraint= 630 
+1 x47 = 1 ;
+1 x48 = 0 ;
+1 x49 = 0 ;
+1 x50 = 0 ;
+1 x51 = 0 ;
+1 x52 = 0 ;
+1 x53 = 0 ;
+1 x54 = 0 ;
+1 x55 = 0 ;
+2 x66 +1 x56 -1 x38 -1 x47 = 0 ;
+2 x67 +1 x57 -1 x39 -1 x66 -1 x48 = 0 ;
+2 x68 +1 x58 -1 x40 -1 x67 -1 x49 = 0 ;
+2 x69 +1 x59 -1 x41 -1 x68 -1 x50 = 0 ;
+2 x70 +1 x60 -1 x42 -1 x69 -1 x51 = 0 ;
+2 x71 +1 x61 -1 x43 -1 x70 -1 x52 = 0 ;
+2 x72 +1 x62 -1 x44 -1 x71 -1 x53 = 0 ;
+2 x73 +1 x63 -1 x45 -1 x72 -1 x54 = 0 ;
+2 x74 +1 x64 -1 x46 -1 x73 -1 x55 = 0 ;
+1 x74 -1 x65 = 0 ;
+2 x75 +1 x674 -1 x656 -1 x1 = 0 ;
+2 x76 +1 x675 -1 x657 -1 x75 -1 x2 = 0 ;
+2 x77 +1 x676 -1 x658 -1 x76 -1 x3 = 0 ;
+2 x78 +1 x677 -1 x659 -1 x77 -1 x4 = 0 ;
+2 x79 +1 x678 -1 x660 -1 x78 -1 x5 = 0 ;
+2 x80 +1 x679 -1 x661 -1 x79 -1 x6 = 0 ;
+2 x81 +1 x680 -1 x662 -1 x80 -1 x7 = 0 ;
+2 x82 +1 x681 -1 x663 -1 x81 -1 x8 = 0 ;
+2 x83 +1 x682 -1 x664 -1 x82 -1 x9 = 0 ;
+2 x84 +1 x683 -1 x665 -1 x83 -1 x10 = 0 ;
+2 x85 +1 x684 -1 x666 -1 x84 -1 x11 = 0 ;
+2 x86 +1 x685 -1 x667 -1 x85 -1 x12 = 0 ;
+2 x87 +1 x686 -1 x668 -1 x86 -1 x13 = 0 ;
+2 x88 +1 x687 -1 x669 -1 x87 -1 x14 = 0 ;
+2 x89 +1 x688 -1 x670 -1 x88 -1 x15 = 0 ;
+2 x90 +1 x689 -1 x671 -1 x89 -1 x16 = 0 ;
+2 x91 +1 x690 -1 x672 -1 x90 -1 x17 = 0 ;
+2 x92 +1 x691 -1 x673 -1 x91 -1 x18 = 0 ;
+1 x92 -1 x692 = 0 ;
+1 x10 = 0 ;
+1 x11 = 0 ;
+1 x12 = 0 ;
+1 x13 = 0 ;
+1 x14 = 0 ;
+1 x15 = 0 ;
+1 x16 = 0 ;
+1 x17 = 0 ;
+1 x18 = 0 ;
+1 x37 = 0 ;
+1 x28 -1 x1 >= 0 ;
+1 x28 -1 x19 >= 0 ;
-1 x28 +1 x1 +1 x19 >= 0 ;
+1 x19 = 0 ;
+1 x29 -1 x2 >= 0 ;
+1 x29 -1 x20 >= 0 ;
-1 x29 +1 x2 +1 x20 >= 0 ;
+1 x20 = 1 ;
+1 x30 -1 x3 >= 0 ;
+1 x30 -1 x21 >= 0 ;
-1 x30 +1 x3 +1 x21 >= 0 ;
+1 x21 = 0 ;
+1 x31 -1 x4 >= 0 ;
+1 x31 -1 x22 >= 0 ;
-1 x31 +1 x4 +1 x22 >= 0 ;
+1 x22 = 1 ;
+1 x32 -1 x5 >= 0 ;
+1 x32 -1 x23 >= 0 ;
-1 x32 +1 x5 +1 x23 >= 0 ;
+1 x23 = 0 ;
+1 x33 -1 x6 >= 0 ;
+1 x33 -1 x24 >= 0 ;
-1 x33 +1 x6 +1 x24 >= 0 ;
+1 x24 = 1 ;
+1 x34 -1 x7 >= 0 ;
+1 x34 -1 x25 >= 0 ;
-1 x34 +1 x7 +1 x25 >= 0 ;
+1 x25 = 0 ;
+1 x35 -1 x8 >= 0 ;
+1 x35 -1 x26 >= 0 ;
-1 x35 +1 x8 +1 x26 >= 0 ;
+1 x26 = 1 ;
+1 x36 -1 x9 >= 0 ;
+1 x36 -1 x27 >= 0 ;
-1 x36 +1 x9 +1 x27 >= 0 ;
+1 x27 = 0 ;
-1 x93 +1 x28 >= 0 ;
-1 x93 +1 x56 >= 0 ;
+1 x93 -1 x28 -1 x56 >= -1 ;
+1 x93 +2 x103 +4 x113 +8 x123 +16 x133 +32 x143 +64 x153 +128 x163 +256 x173 +512 x183 +2 x94 +4 x104 +8 x114 +16 x124 +32 x134 +64 x144 +128 x154 +256 x164 +512 x174 +1024 x184 +4 x95 +8 x105 +16 x115 +32 x125 +64 x135 +128 x145 +256 x155 +512 x165 +1024 x175 +2048 x185 +8 x96 +16 x106 +32 x116 +64 x126 +128 x136 +256 x146 +512 x156 +1024 x166 +2048 x176 +4096 x186 +16 x97 +32 x107 +64 x117 +128 x127 +256 x137 +512 x147 +1024 x157 +2048 x167 +4096 x177 +8192 x187 +32 x98 +64 x108 +128 x118 +256 x128 +512 x138 +1024 x148 +2048 x158 +4096 x168 +8192 x178 +16384 x188 +64 x99 +128 x109 +256 x119 +512 x129 +1024 x139 +2048 x149 +4096 x159 +8192 x169 +16384 x179 +32768 x189 +128 x100 +256 x110 +512 x120 +1024 x130 +2048 x140 +4096 x150 +8192 x160 +16384 x170 +32768 x180 +65536 x190 +256 x101 +512 x111 +1024 x121 +2048 x131 +4096 x141 +8192 x151 +16384 x161 +32768 x171 +65536 x181 +131072 x191 +512 x102 +1024 x112 +2048 x122 +4096 x132 +8192 x142 +16384 x152 +32768 x162 +65536 x172 +131072 x182 +262144 x192 -1 x393 -2 x394 -4 x395 -8 x396 -16 x397 -32 x398 -64 x399 -128 x400 -256 x401 -512 x402 -1024 x403 -2048 x404 -4096 x405 -8192 x406 -16384 x407 -32768 x408 -65536 x409 -131072 x410 -262144 x411 -524288 x412 = 0; 
-1 x413 +1 x19 >= 0 ;
-1 x413 +1 x38 >= 0 ;
+1 x413 -1 x19 -1 x38 >= -1 ;
+1 x413 +2 x422 +4 x431 +8 x440 +16 x449 +32 x458 +64 x467 +128 x476 +256 x485 +2 x414 +4 x423 +8 x432 +16 x441 +32 x450 +64 x459 +128 x468 +256 x477 +512 x486 +4 x415 +8 x424 +16 x433 +32 x442 +64 x451 +128 x460 +256 x469 +512 x478 +1024 x487 +8 x416 +16 x425 +32 x434 +64 x443 +128 x452 +256 x461 +512 x470 +1024 x479 +2048 x488 +16 x417 +32 x426 +64 x435 +128 x444 +256 x453 +512 x462 +1024 x471 +2048 x480 +4096 x489 +32 x418 +64 x427 +128 x436 +256 x445 +512 x454 +1024 x463 +2048 x472 +4096 x481 +8192 x490 +64 x419 +128 x428 +256 x437 +512 x446 +1024 x455 +2048 x464 +4096 x473 +8192 x482 +16384 x491 +128 x420 +256 x429 +512 x438 +1024 x447 +2048 x456 +4096 x465 +8192 x474 +16384 x483 +32768 x492 +256 x421 +512 x430 +1024 x439 +2048 x448 +4096 x457 +8192 x466 +16384 x475 +32768 x484 +65536 x493 -1 x656 -2 x657 -4 x658 -8 x659 -16 x660 -32 x661 -64 x662 -128 x663 -256 x664 -512 x665 -1024 x666 -2048 x667 -4096 x668 -8192 x669 -16384 x670 -32768 x671 -65536 x672 -131072 x673 = 0; 
+1 x674 -1 x393 +2 x675 -2 x394 +4 x676 -4 x395 +8 x677 -8 x396 +16 x678 -16 x397 +32 x679 -32 x398 +64 x680 -64 x399 +128 x681 -128 x400 +256 x682 -256 x401 +512 x683 -512 x402 +1024 x684 -1024 x403 +2048 x685 -2048 x404 +4096 x686 -4096 x405 +8192 x687 -8192 x406 +16384 x688 -16384 x407 +32768 x689 -32768 x408 +65536 x690 -65536 x409 +131072 x691 -131072 x410 +262144 x692 -262144 x411 >= 1 ;
-1 x103 +1 x29 >= 0 ;
-1 x103 +1 x56 >= 0 ;
+1 x103 -1 x29 -1 x56 >= -1 ;
-1 x94 +1 x28 >= 0 ;
-1 x94 +1 x57 >= 0 ;
+1 x94 -1 x28 -1 x57 >= -1 ;
-1 x422 +1 x20 >= 0 ;
-1 x422 +1 x38 >= 0 ;
+1 x422 -1 x20 -1 x38 >= -1 ;
-1 x414 +1 x19 >= 0 ;
-1 x414 +1 x39 >= 0 ;
+1 x414 -1 x19 -1 x39 >= -1 ;
-1 x113 +1 x30 >= 0 ;
-1 x113 +1 x56 >= 0 ;
+1 x113 -1 x30 -1 x56 >= -1 ;
-1 x104 +1 x29 >= 0 ;
-1 x104 +1 x57 >= 0 ;
+1 x104 -1 x29 -1 x57 >= -1 ;
-1 x95 +1 x28 >= 0 ;
-1 x95 +1 x58 >= 0 ;
+1 x95 -1 x28 -1 x58 >= -1 ;
-1 x431 +1 x21 >= 0 ;
-1 x431 +1 x38 >= 0 ;
+1 x431 -1 x21 -1 x38 >= -1 ;
-1 x423 +1 x20 >= 0 ;
-1 x423 +1 x39 >= 0 ;
+1 x423 -1 x20 -1 x39 >= -1 ;
-1 x415 +1 x19 >= 0 ;
-1 x415 +1 x40 >= 0 ;
+1 x415 -1 x19 -1 x40 >= -1 ;
-1 x123 +1 x31 >= 0 ;
-1 x123 +1 x56 >= 0 ;
+1 x123 -1 x31 -1 x56 >= -1 ;
-1 x114 +1 x30 >= 0 ;
-1 x114 +1 x57 >= 0 ;
+1 x114 -1 x30 -1 x57 >= -1 ;
-1 x105 +1 x29 >= 0 ;
-1 x105 +1 x58 >= 0 ;
+1 x105 -1 x29 -1 x58 >= -1 ;
-1 x96 +1 x28 >= 0 ;
-1 x96 +1 x59 >= 0 ;
+1 x96 -1 x28 -1 x59 >= -1 ;
-1 x440 +1 x22 >= 0 ;
-1 x440 +1 x38 >= 0 ;
+1 x440 -1 x22 -1 x38 >= -1 ;
-1 x432 +1 x21 >= 0 ;
-1 x432 +1 x39 >= 0 ;
+1 x432 -1 x21 -1 x39 >= -1 ;
-1 x424 +1 x20 >= 0 ;
-1 x424 +1 x40 >= 0 ;
+1 x424 -1 x20 -1 x40 >= -1 ;
-1 x416 +1 x19 >= 0 ;
-1 x416 +1 x41 >= 0 ;
+1 x416 -1 x19 -1 x41 >= -1 ;
-1 x133 +1 x32 >= 0 ;
-1 x133 +1 x56 >= 0 ;
+1 x133 -1 x32 -1 x56 >= -1 ;
-1 x124 +1 x31 >= 0 ;
-1 x124 +1 x57 >= 0 ;
+1 x124 -1 x31 -1 x57 >= -1 ;
-1 x115 +1 x30 >= 0 ;
-1 x115 +1 x58 >= 0 ;
+1 x115 -1 x30 -1 x58 >= -1 ;
-1 x106 +1 x29 >= 0 ;
-1 x106 +1 x59 >= 0 ;
+1 x106 -1 x29 -1 x59 >= -1 ;
-1 x97 +1 x28 >= 0 ;
-1 x97 +1 x60 >= 0 ;
+1 x97 -1 x28 -1 x60 >= -1 ;
-1 x449 +1 x23 >= 0 ;
-1 x449 +1 x38 >= 0 ;
+1 x449 -1 x23 -1 x38 >= -1 ;
-1 x441 +1 x22 >= 0 ;
-1 x441 +1 x39 >= 0 ;
+1 x441 -1 x22 -1 x39 >= -1 ;
-1 x433 +1 x21 >= 0 ;
-1 x433 +1 x40 >= 0 ;
+1 x433 -1 x21 -1 x40 >= -1 ;
-1 x425 +1 x20 >= 0 ;
-1 x425 +1 x41 >= 0 ;
+1 x425 -1 x20 -1 x41 >= -1 ;
-1 x417 +1 x19 >= 0 ;
-1 x417 +1 x42 >= 0 ;
+1 x417 -1 x19 -1 x42 >= -1 ;
-1 x143 +1 x33 >= 0 ;
-1 x143 +1 x56 >= 0 ;
+1 x143 -1 x33 -1 x56 >= -1 ;
-1 x134 +1 x32 >= 0 ;
-1 x134 +1 x57 >= 0 ;
+1 x134 -1 x32 -1 x57 >= -1 ;
-1 x125 +1 x31 >= 0 ;
-1 x125 +1 x58 >= 0 ;
+1 x125 -1 x31 -1 x58 >= -1 ;
-1 x116 +1 x30 >= 0 ;
-1 x116 +1 x59 >= 0 ;
+1 x116 -1 x30 -1 x59 >= -1 ;
-1 x107 +1 x29 >= 0 ;
-1 x107 +1 x60 >= 0 ;
+1 x107 -1 x29 -1 x60 >= -1 ;
-1 x98 +1 x28 >= 0 ;
-1 x98 +1 x61 >= 0 ;
+1 x98 -1 x28 -1 x61 >= -1 ;
-1 x458 +1 x24 >= 0 ;
-1 x458 +1 x38 >= 0 ;
+1 x458 -1 x24 -1 x38 >= -1 ;
-1 x450 +1 x23 >= 0 ;
-1 x450 +1 x39 >= 0 ;
+1 x450 -1 x23 -1 x39 >= -1 ;
-1 x442 +1 x22 >= 0 ;
-1 x442 +1 x40 >= 0 ;
+1 x442 -1 x22 -1 x40 >= -1 ;
-1 x434 +1 x21 >= 0 ;
-1 x434 +1 x41 >= 0 ;
+1 x434 -1 x21 -1 x41 >= -1 ;
-1 x426 +1 x20 >= 0 ;
-1 x426 +1 x42 >= 0 ;
+1 x426 -1 x20 -1 x42 >= -1 ;
-1 x418 +1 x19 >= 0 ;
-1 x418 +1 x43 >= 0 ;
+1 x418 -1 x19 -1 x43 >= -1 ;
-1 x153 +1 x34 >= 0 ;
-1 x153 +1 x56 >= 0 ;
+1 x153 -1 x34 -1 x56 >= -1 ;
-1 x144 +1 x33 >= 0 ;
-1 x144 +1 x57 >= 0 ;
+1 x144 -1 x33 -1 x57 >= -1 ;
-1 x135 +1 x32 >= 0 ;
-1 x135 +1 x58 >= 0 ;
+1 x135 -1 x32 -1 x58 >= -1 ;
-1 x126 +1 x31 >= 0 ;
-1 x126 +1 x59 >= 0 ;
+1 x126 -1 x31 -1 x59 >= -1 ;
-1 x117 +1 x30 >= 0 ;
-1 x117 +1 x60 >= 0 ;
+1 x117 -1 x30 -1 x60 >= -1 ;
-1 x108 +1 x29 >= 0 ;
-1 x108 +1 x61 >= 0 ;
+1 x108 -1 x29 -1 x61 >= -1 ;
-1 x99 +1 x28 >= 0 ;
-1 x99 +1 x62 >= 0 ;
+1 x99 -1 x28 -1 x62 >= -1 ;
-1 x467 +1 x25 >= 0 ;
-1 x467 +1 x38 >= 0 ;
+1 x467 -1 x25 -1 x38 >= -1 ;
-1 x459 +1 x24 >= 0 ;
-1 x459 +1 x39 >= 0 ;
+1 x459 -1 x24 -1 x39 >= -1 ;
-1 x451 +1 x23 >= 0 ;
-1 x451 +1 x40 >= 0 ;
+1 x451 -1 x23 -1 x40 >= -1 ;
-1 x443 +1 x22 >= 0 ;
-1 x443 +1 x41 >= 0 ;
+1 x443 -1 x22 -1 x41 >= -1 ;
-1 x435 +1 x21 >= 0 ;
-1 x435 +1 x42 >= 0 ;
+1 x435 -1 x21 -1 x42 >= -1 ;
-1 x427 +1 x20 >= 0 ;
-1 x427 +1 x43 >= 0 ;
+1 x427 -1 x20 -1 x43 >= -1 ;
-1 x419 +1 x19 >= 0 ;
-1 x419 +1 x44 >= 0 ;
+1 x419 -1 x19 -1 x44 >= -1 ;
-1 x163 +1 x35 >= 0 ;
-1 x163 +1 x56 >= 0 ;
+1 x163 -1 x35 -1 x56 >= -1 ;
-1 x154 +1 x34 >= 0 ;
-1 x154 +1 x57 >= 0 ;
+1 x154 -1 x34 -1 x57 >= -1 ;
-1 x145 +1 x33 >= 0 ;
-1 x145 +1 x58 >= 0 ;
+1 x145 -1 x33 -1 x58 >= -1 ;
-1 x136 +1 x32 >= 0 ;
-1 x136 +1 x59 >= 0 ;
+1 x136 -1 x32 -1 x59 >= -1 ;
-1 x127 +1 x31 >= 0 ;
-1 x127 +1 x60 >= 0 ;
+1 x127 -1 x31 -1 x60 >= -1 ;
-1 x118 +1 x30 >= 0 ;
-1 x118 +1 x61 >= 0 ;
+1 x118 -1 x30 -1 x61 >= -1 ;
-1 x109 +1 x29 >= 0 ;
-1 x109 +1 x62 >= 0 ;
+1 x109 -1 x29 -1 x62 >= -1 ;
-1 x100 +1 x28 >= 0 ;
-1 x100 +1 x63 >= 0 ;
+1 x100 -1 x28 -1 x63 >= -1 ;
-1 x476 +1 x26 >= 0 ;
-1 x476 +1 x38 >= 0 ;
+1 x476 -1 x26 -1 x38 >= -1 ;
-1 x468 +1 x25 >= 0 ;
-1 x468 +1 x39 >= 0 ;
+1 x468 -1 x25 -1 x39 >= -1 ;
-1 x460 +1 x24 >= 0 ;
-1 x460 +1 x40 >= 0 ;
+1 x460 -1 x24 -1 x40 >= -1 ;
-1 x452 +1 x23 >= 0 ;
-1 x452 +1 x41 >= 0 ;
+1 x452 -1 x23 -1 x41 >= -1 ;
-1 x444 +1 x22 >= 0 ;
-1 x444 +1 x42 >= 0 ;
+1 x444 -1 x22 -1 x42 >= -1 ;
-1 x436 +1 x21 >= 0 ;
-1 x436 +1 x43 >= 0 ;
+1 x436 -1 x21 -1 x43 >= -1 ;
-1 x428 +1 x20 >= 0 ;
-1 x428 +1 x44 >= 0 ;
+1 x428 -1 x20 -1 x44 >= -1 ;
-1 x420 +1 x19 >= 0 ;
-1 x420 +1 x45 >= 0 ;
+1 x420 -1 x19 -1 x45 >= -1 ;
-1 x173 +1 x36 >= 0 ;
-1 x173 +1 x56 >= 0 ;
+1 x173 -1 x36 -1 x56 >= -1 ;
-1 x164 +1 x35 >= 0 ;
-1 x164 +1 x57 >= 0 ;
+1 x164 -1 x35 -1 x57 >= -1 ;
-1 x155 +1 x34 >= 0 ;
-1 x155 +1 x58 >= 0 ;
+1 x155 -1 x34 -1 x58 >= -1 ;
-1 x146 +1 x33 >= 0 ;
-1 x146 +1 x59 >= 0 ;
+1 x146 -1 x33 -1 x59 >= -1 ;
-1 x137 +1 x32 >= 0 ;
-1 x137 +1 x60 >= 0 ;
+1 x137 -1 x32 -1 x60 >= -1 ;
-1 x128 +1 x31 >= 0 ;
-1 x128 +1 x61 >= 0 ;
+1 x128 -1 x31 -1 x61 >= -1 ;
-1 x119 +1 x30 >= 0 ;
-1 x119 +1 x62 >= 0 ;
+1 x119 -1 x30 -1 x62 >= -1 ;
-1 x110 +1 x29 >= 0 ;
-1 x110 +1 x63 >= 0 ;
+1 x110 -1 x29 -1 x63 >= -1 ;
-1 x101 +1 x28 >= 0 ;
-1 x101 +1 x64 >= 0 ;
+1 x101 -1 x28 -1 x64 >= -1 ;
-1 x485 +1 x27 >= 0 ;
-1 x485 +1 x38 >= 0 ;
+1 x485 -1 x27 -1 x38 >= -1 ;
-1 x477 +1 x26 >= 0 ;
-1 x477 +1 x39 >= 0 ;
+1 x477 -1 x26 -1 x39 >= -1 ;
-1 x469 +1 x25 >= 0 ;
-1 x469 +1 x40 >= 0 ;
+1 x469 -1 x25 -1 x40 >= -1 ;
-1 x461 +1 x24 >= 0 ;
-1 x461 +1 x41 >= 0 ;
+1 x461 -1 x24 -1 x41 >= -1 ;
-1 x453 +1 x23 >= 0 ;
-1 x453 +1 x42 >= 0 ;
+1 x453 -1 x23 -1 x42 >= -1 ;
-1 x445 +1 x22 >= 0 ;
-1 x445 +1 x43 >= 0 ;
+1 x445 -1 x22 -1 x43 >= -1 ;
-1 x437 +1 x21 >= 0 ;
-1 x437 +1 x44 >= 0 ;
+1 x437 -1 x21 -1 x44 >= -1 ;
-1 x429 +1 x20 >= 0 ;
-1 x429 +1 x45 >= 0 ;
+1 x429 -1 x20 -1 x45 >= -1 ;
-1 x421 +1 x19 >= 0 ;
-1 x421 +1 x46 >= 0 ;
+1 x421 -1 x19 -1 x46 >= -1 ;
-1 x183 +1 x37 >= 0 ;
-1 x183 +1 x56 >= 0 ;
+1 x183 -1 x37 -1 x56 >= -1 ;
-1 x174 +1 x36 >= 0 ;
-1 x174 +1 x57 >= 0 ;
+1 x174 -1 x36 -1 x57 >= -1 ;
-1 x165 +1 x35 >= 0 ;
-1 x165 +1 x58 >= 0 ;
+1 x165 -1 x35 -1 x58 >= -1 ;
-1 x156 +1 x34 >= 0 ;
-1 x156 +1 x59 >= 0 ;
+1 x156 -1 x34 -1 x59 >= -1 ;
-1 x147 +1 x33 >= 0 ;
-1 x147 +1 x60 >= 0 ;
+1 x147 -1 x33 -1 x60 >= -1 ;
-1 x138 +1 x32 >= 0 ;
-1 x138 +1 x61 >= 0 ;
+1 x138 -1 x32 -1 x61 >= -1 ;
-1 x129 +1 x31 >= 0 ;
-1 x129 +1 x62 >= 0 ;
+1 x129 -1 x31 -1 x62 >= -1 ;
-1 x120 +1 x30 >= 0 ;
-1 x120 +1 x63 >= 0 ;
+1 x120 -1 x30 -1 x63 >= -1 ;
-1 x111 +1 x29 >= 0 ;
-1 x111 +1 x64 >= 0 ;
+1 x111 -1 x29 -1 x64 >= -1 ;
-1 x102 +1 x28 >= 0 ;
-1 x102 +1 x65 >= 0 ;
+1 x102 -1 x28 -1 x65 >= -1 ;
-1 x486 +1 x27 >= 0 ;
-1 x486 +1 x39 >= 0 ;
+1 x486 -1 x27 -1 x39 >= -1 ;
-1 x478 +1 x26 >= 0 ;
-1 x478 +1 x40 >= 0 ;
+1 x478 -1 x26 -1 x40 >= -1 ;
-1 x470 +1 x25 >= 0 ;
-1 x470 +1 x41 >= 0 ;
+1 x470 -1 x25 -1 x41 >= -1 ;
-1 x462 +1 x24 >= 0 ;
-1 x462 +1 x42 >= 0 ;
+1 x462 -1 x24 -1 x42 >= -1 ;
-1 x454 +1 x23 >= 0 ;
-1 x454 +1 x43 >= 0 ;
+1 x454 -1 x23 -1 x43 >= -1 ;
-1 x446 +1 x22 >= 0 ;
-1 x446 +1 x44 >= 0 ;
+1 x446 -1 x22 -1 x44 >= -1 ;
-1 x438 +1 x21 >= 0 ;
-1 x438 +1 x45 >= 0 ;
+1 x438 -1 x21 -1 x45 >= -1 ;
-1 x430 +1 x20 >= 0 ;
-1 x430 +1 x46 >= 0 ;
+1 x430 -1 x20 -1 x46 >= -1 ;
-1 x184 +1 x37 >= 0 ;
-1 x184 +1 x57 >= 0 ;
+1 x184 -1 x37 -1 x57 >= -1 ;
-1 x175 +1 x36 >= 0 ;
-1 x175 +1 x58 >= 0 ;
+1 x175 -1 x36 -1 x58 >= -1 ;
-1 x166 +1 x35 >= 0 ;
-1 x166 +1 x59 >= 0 ;
+1 x166 -1 x35 -1 x59 >= -1 ;
-1 x157 +1 x34 >= 0 ;
-1 x157 +1 x60 >= 0 ;
+1 x157 -1 x34 -1 x60 >= -1 ;
-1 x148 +1 x33 >= 0 ;
-1 x148 +1 x61 >= 0 ;
+1 x148 -1 x33 -1 x61 >= -1 ;
-1 x139 +1 x32 >= 0 ;
-1 x139 +1 x62 >= 0 ;
+1 x139 -1 x32 -1 x62 >= -1 ;
-1 x130 +1 x31 >= 0 ;
-1 x130 +1 x63 >= 0 ;
+1 x130 -1 x31 -1 x63 >= -1 ;
-1 x121 +1 x30 >= 0 ;
-1 x121 +1 x64 >= 0 ;
+1 x121 -1 x30 -1 x64 >= -1 ;
-1 x112 +1 x29 >= 0 ;
-1 x112 +1 x65 >= 0 ;
+1 x112 -1 x29 -1 x65 >= -1 ;
-1 x487 +1 x27 >= 0 ;
-1 x487 +1 x40 >= 0 ;
+1 x487 -1 x27 -1 x40 >= -1 ;
-1 x479 +1 x26 >= 0 ;
-1 x479 +1 x41 >= 0 ;
+1 x479 -1 x26 -1 x41 >= -1 ;
-1 x471 +1 x25 >= 0 ;
-1 x471 +1 x42 >= 0 ;
+1 x471 -1 x25 -1 x42 >= -1 ;
-1 x463 +1 x24 >= 0 ;
-1 x463 +1 x43 >= 0 ;
+1 x463 -1 x24 -1 x43 >= -1 ;
-1 x455 +1 x23 >= 0 ;
-1 x455 +1 x44 >= 0 ;
+1 x455 -1 x23 -1 x44 >= -1 ;
-1 x447 +1 x22 >= 0 ;
-1 x447 +1 x45 >= 0 ;
+1 x447 -1 x22 -1 x45 >= -1 ;
-1 x439 +1 x21 >= 0 ;
-1 x439 +1 x46 >= 0 ;
+1 x439 -1 x21 -1 x46 >= -1 ;
-1 x185 +1 x37 >= 0 ;
-1 x185 +1 x58 >= 0 ;
+1 x185 -1 x37 -1 x58 >= -1 ;
-1 x176 +1 x36 >= 0 ;
-1 x176 +1 x59 >= 0 ;
+1 x176 -1 x36 -1 x59 >= -1 ;
-1 x167 +1 x35 >= 0 ;
-1 x167 +1 x60 >= 0 ;
+1 x167 -1 x35 -1 x60 >= -1 ;
-1 x158 +1 x34 >= 0 ;
-1 x158 +1 x61 >= 0 ;
+1 x158 -1 x34 -1 x61 >= -1 ;
-1 x149 +1 x33 >= 0 ;
-1 x149 +1 x62 >= 0 ;
+1 x149 -1 x33 -1 x62 >= -1 ;
-1 x140 +1 x32 >= 0 ;
-1 x140 +1 x63 >= 0 ;
+1 x140 -1 x32 -1 x63 >= -1 ;
-1 x131 +1 x31 >= 0 ;
-1 x131 +1 x64 >= 0 ;
+1 x131 -1 x31 -1 x64 >= -1 ;
-1 x122 +1 x30 >= 0 ;
-1 x122 +1 x65 >= 0 ;
+1 x122 -1 x30 -1 x65 >= -1 ;
-1 x488 +1 x27 >= 0 ;
-1 x488 +1 x41 >= 0 ;
+1 x488 -1 x27 -1 x41 >= -1 ;
-1 x480 +1 x26 >= 0 ;
-1 x480 +1 x42 >= 0 ;
+1 x480 -1 x26 -1 x42 >= -1 ;
-1 x472 +1 x25 >= 0 ;
-1 x472 +1 x43 >= 0 ;
+1 x472 -1 x25 -1 x43 >= -1 ;
-1 x464 +1 x24 >= 0 ;
-1 x464 +1 x44 >= 0 ;
+1 x464 -1 x24 -1 x44 >= -1 ;
-1 x456 +1 x23 >= 0 ;
-1 x456 +1 x45 >= 0 ;
+1 x456 -1 x23 -1 x45 >= -1 ;
-1 x448 +1 x22 >= 0 ;
-1 x448 +1 x46 >= 0 ;
+1 x448 -1 x22 -1 x46 >= -1 ;
-1 x186 +1 x37 >= 0 ;
-1 x186 +1 x59 >= 0 ;
+1 x186 -1 x37 -1 x59 >= -1 ;
-1 x177 +1 x36 >= 0 ;
-1 x177 +1 x60 >= 0 ;
+1 x177 -1 x36 -1 x60 >= -1 ;
-1 x168 +1 x35 >= 0 ;
-1 x168 +1 x61 >= 0 ;
+1 x168 -1 x35 -1 x61 >= -1 ;
-1 x159 +1 x34 >= 0 ;
-1 x159 +1 x62 >= 0 ;
+1 x159 -1 x34 -1 x62 >= -1 ;
-1 x150 +1 x33 >= 0 ;
-1 x150 +1 x63 >= 0 ;
+1 x150 -1 x33 -1 x63 >= -1 ;
-1 x141 +1 x32 >= 0 ;
-1 x141 +1 x64 >= 0 ;
+1 x141 -1 x32 -1 x64 >= -1 ;
-1 x132 +1 x31 >= 0 ;
-1 x132 +1 x65 >= 0 ;
+1 x132 -1 x31 -1 x65 >= -1 ;
-1 x489 +1 x27 >= 0 ;
-1 x489 +1 x42 >= 0 ;
+1 x489 -1 x27 -1 x42 >= -1 ;
-1 x481 +1 x26 >= 0 ;
-1 x481 +1 x43 >= 0 ;
+1 x481 -1 x26 -1 x43 >= -1 ;
-1 x473 +1 x25 >= 0 ;
-1 x473 +1 x44 >= 0 ;
+1 x473 -1 x25 -1 x44 >= -1 ;
-1 x465 +1 x24 >= 0 ;
-1 x465 +1 x45 >= 0 ;
+1 x465 -1 x24 -1 x45 >= -1 ;
-1 x457 +1 x23 >= 0 ;
-1 x457 +1 x46 >= 0 ;
+1 x457 -1 x23 -1 x46 >= -1 ;
-1 x187 +1 x37 >= 0 ;
-1 x187 +1 x60 >= 0 ;
+1 x187 -1 x37 -1 x60 >= -1 ;
-1 x178 +1 x36 >= 0 ;
-1 x178 +1 x61 >= 0 ;
+1 x178 -1 x36 -1 x61 >= -1 ;
-1 x169 +1 x35 >= 0 ;
-1 x169 +1 x62 >= 0 ;
+1 x169 -1 x35 -1 x62 >= -1 ;
-1 x160 +1 x34 >= 0 ;
-1 x160 +1 x63 >= 0 ;
+1 x160 -1 x34 -1 x63 >= -1 ;
-1 x151 +1 x33 >= 0 ;
-1 x151 +1 x64 >= 0 ;
+1 x151 -1 x33 -1 x64 >= -1 ;
-1 x142 +1 x32 >= 0 ;
-1 x142 +1 x65 >= 0 ;
+1 x142 -1 x32 -1 x65 >= -1 ;
-1 x490 +1 x27 >= 0 ;
-1 x490 +1 x43 >= 0 ;
+1 x490 -1 x27 -1 x43 >= -1 ;
-1 x482 +1 x26 >= 0 ;
-1 x482 +1 x44 >= 0 ;
+1 x482 -1 x26 -1 x44 >= -1 ;
-1 x474 +1 x25 >= 0 ;
-1 x474 +1 x45 >= 0 ;
+1 x474 -1 x25 -1 x45 >= -1 ;
-1 x466 +1 x24 >= 0 ;
-1 x466 +1 x46 >= 0 ;
+1 x466 -1 x24 -1 x46 >= -1 ;
-1 x188 +1 x37 >= 0 ;
-1 x188 +1 x61 >= 0 ;
+1 x188 -1 x37 -1 x61 >= -1 ;
-1 x179 +1 x36 >= 0 ;
-1 x179 +1 x62 >= 0 ;
+1 x179 -1 x36 -1 x62 >= -1 ;
-1 x170 +1 x35 >= 0 ;
-1 x170 +1 x63 >= 0 ;
+1 x170 -1 x35 -1 x63 >= -1 ;
-1 x161 +1 x34 >= 0 ;
-1 x161 +1 x64 >= 0 ;
+1 x161 -1 x34 -1 x64 >= -1 ;
-1 x152 +1 x33 >= 0 ;
-1 x152 +1 x65 >= 0 ;
+1 x152 -1 x33 -1 x65 >= -1 ;
-1 x491 +1 x27 >= 0 ;
-1 x491 +1 x44 >= 0 ;
+1 x491 -1 x27 -1 x44 >= -1 ;
-1 x483 +1 x26 >= 0 ;
-1 x483 +1 x45 >= 0 ;
+1 x483 -1 x26 -1 x45 >= -1 ;
-1 x475 +1 x25 >= 0 ;
-1 x475 +1 x46 >= 0 ;
+1 x475 -1 x25 -1 x46 >= -1 ;
-1 x189 +1 x37 >= 0 ;
-1 x189 +1 x62 >= 0 ;
+1 x189 -1 x37 -1 x62 >= -1 ;
-1 x180 +1 x36 >= 0 ;
-1 x180 +1 x63 >= 0 ;
+1 x180 -1 x36 -1 x63 >= -1 ;
-1 x171 +1 x35 >= 0 ;
-1 x171 +1 x64 >= 0 ;
+1 x171 -1 x35 -1 x64 >= -1 ;
-1 x162 +1 x34 >= 0 ;
-1 x162 +1 x65 >= 0 ;
+1 x162 -1 x34 -1 x65 >= -1 ;
-1 x492 +1 x27 >= 0 ;
-1 x492 +1 x45 >= 0 ;
+1 x492 -1 x27 -1 x45 >= -1 ;
-1 x484 +1 x26 >= 0 ;
-1 x484 +1 x46 >= 0 ;
+1 x484 -1 x26 -1 x46 >= -1 ;
-1 x190 +1 x37 >= 0 ;
-1 x190 +1 x63 >= 0 ;
+1 x190 -1 x37 -1 x63 >= -1 ;
-1 x181 +1 x36 >= 0 ;
-1 x181 +1 x64 >= 0 ;
+1 x181 -1 x36 -1 x64 >= -1 ;
-1 x172 +1 x35 >= 0 ;
-1 x172 +1 x65 >= 0 ;
+1 x172 -1 x35 -1 x65 >= -1 ;
-1 x493 +1 x27 >= 0 ;
-1 x493 +1 x46 >= 0 ;
+1 x493 -1 x27 -1 x46 >= -1 ;
-1 x191 +1 x37 >= 0 ;
-1 x191 +1 x64 >= 0 ;
+1 x191 -1 x37 -1 x64 >= -1 ;
-1 x182 +1 x36 >= 0 ;
-1 x182 +1 x65 >= 0 ;
+1 x182 -1 x36 -1 x65 >= -1 ;
-1 x192 +1 x37 >= 0 ;
-1 x192 +1 x65 >= 0 ;
+1 x192 -1 x37 -1 x65 >= -1 ;
